\ Model knapsack_40_10_5
\ LP format - for model browsing. Use MPS format to capture full model detail.
\ Signature: 0xcd583f2aa9f1c9c6
Minimize
  151.1 x[0] + 81.45 x[1] + 121.08 x[2] + 79.1 x[3] + 110.98 x[4]
   + 164.66 x[5] + 100.06 x[6] + 67.79 x[7] + 65.76 x[8] + 46.27 x[9]
   + 32.24 x[10] + 150.78 x[11] + 78.61 x[12] + 20.39 x[13] + 130.22 x[14]
   + 68.11 x[15] + 76.76 x[16] + 17.74 x[17] + 104.66 x[18] + 103.43 x[19]
   + 138.28 x[20] + 140.07 x[21] + 89.9 x[22] + 108.51 x[23] + 81.76 x[24]
   + 107.7 x[25] + 96.69 x[26] + 97.33 x[27] + 94.43 x[28] + 56.92 x[29]
   + 80.39 x[30] + 101.13 x[31] + 64.21 x[32] + 125.83 x[33] + 51.21 x[34]
   + 69.09 x[35] + 160.44 x[36] + 95.89 x[37] + 29.29 x[38] + 71.53 x[39]
   - 786 y[0] - 479 y[1] - 699 y[2] - 571 y[3] - 1037 y[4] - 921 y[5]
   - 922 y[6] - 409 y[7] - 519 y[8] - 394 y[9] - 232 y[10] - 934 y[11]
   - 776 y[12] - 146 y[13] - 938 y[14] - 464 y[15] - 632 y[16] - 151 y[17]
   - 529 y[18] - 711 y[19] - 1094 y[20] - 776 y[21] - 546 y[22] - 792 y[23]
   - 719 y[24] - 700 y[25] - 843 y[26] - 639 y[27] - 519 y[28] - 384 y[29]
   - 523 y[30] - 777 y[31] - 416 y[32] - 959 y[33] - 423 y[34] - 655 y[35]
   - 940 y[36] - 747 y[37] - 189 y[38] - 582 y[39]
Subject To
 primal_upper: 686 y[0] + 379 y[1] + 599 y[2] + 471 y[3] + 937 y[4]
   + 821 y[5] + 822 y[6] + 309 y[7] + 419 y[8] + 294 y[9] + 132 y[10]
   + 834 y[11] + 676 y[12] + 46 y[13] + 838 y[14] + 364 y[15] + 532 y[16]
   + 51 y[17] + 429 y[18] + 611 y[19] + 994 y[20] + 676 y[21] + 446 y[22]
   + 692 y[23] + 619 y[24] + 600 y[25] + 743 y[26] + 539 y[27] + 419 y[28]
   + 284 y[29] + 423 y[30] + 677 y[31] + 316 y[32] + 859 y[33] + 323 y[34]
   + 555 y[35] + 840 y[36] + 647 y[37] + 89 y[38] + 482 y[39] + 69 z[0]
   + 38 z[1] + 60 z[2] + 47 z[3] + 94 z[4] + 82 z[5] + 82 z[6] + 31 z[7]
   + 42 z[8] + 29 z[9] + 13 z[10] + 83 z[11] + 68 z[12] + 5 z[13]
   + 84 z[14] + 36 z[15] + 53 z[16] + 5 z[17] + 43 z[18] + 61 z[19]
   + 99 z[20] + 68 z[21] + 45 z[22] + 69 z[23] + 62 z[24] + 60 z[25]
   + 74 z[26] + 54 z[27] + 42 z[28] + 28 z[29] + 42 z[30] + 68 z[31]
   + 32 z[32] + 86 z[33] + 32 z[34] + 56 z[35] + 84 z[36] + 65 z[37]
   + 9 z[38] + 48 z[39] <= 3578
 primal_lower0: 506 u[0] + 959 u[1] + 379 u[2] + 587 u[3] + 173 u[4]
   + 769 u[5] + 170 u[6] + 17 u[7] + 831 u[8] + 970 u[9] + 640 u[10]
   + 470 u[11] + 232 u[12] + 210 u[13] + 306 u[14] + 336 u[15] + 24 u[16]
   + 551 u[17] + 761 u[18] + 847 u[19] + 198 u[20] + 896 u[21] + 634 u[22]
   + 864 u[23] + 719 u[24] + 132 u[25] + 91 u[26] + 271 u[27] + 983 u[28]
   + 944 u[29] + 227 u[30] + 401 u[31] + 240 u[32] + 919 u[33] + 351 u[34]
   + 263 u[35] + 700 u[36] + 755 u[37] + 645 u[38] + 726 u[39] <= 10348
 primal_lower1: 112 u[0] + 454 u[1] + 300 u[2] + 199 u[3] + 450 u[4]
   + 272 u[5] + 435 u[6] + 436 u[7] + 404 u[8] + 770 u[9] + 234 u[10]
   + 297 u[11] + 173 u[12] + 538 u[13] + 684 u[14] + 748 u[15] + 533 u[16]
   + 295 u[17] + 522 u[18] + 467 u[19] + 276 u[20] + 823 u[21] + 915 u[22]
   + 555 u[23] + 348 u[24] + 115 u[25] + 500 u[26] + 554 u[27] + 413 u[28]
   + 919 u[29] + 845 u[30] + 60 u[31] + 381 u[32] + 510 u[33] + 248 u[34]
   + 458 u[35] + u[36] + 331 u[37] + 798 u[38] + 922 u[39] <= 6098
 primal_lower2: 349 u[0] + 670 u[1] + 654 u[2] + 274 u[3] + 832 u[4]
   + 488 u[5] + 141 u[6] + 216 u[7] + 82 u[8] + 233 u[9] + 91 u[10]
   + 693 u[11] + 219 u[12] + 745 u[13] + 381 u[14] + 695 u[15] + 107 u[16]
   + 62 u[17] + 724 u[18] + 950 u[19] + 425 u[20] + 15 u[21] + 125 u[22]
   + 903 u[23] + 498 u[24] + 555 u[25] + 382 u[26] + 550 u[27] + 466 u[28]
   + 895 u[29] + 310 u[30] + 472 u[31] + 331 u[32] + 790 u[33] + 194 u[34]
   + 646 u[35] + 351 u[36] + 674 u[37] + 352 u[38] + 733 u[39] <= 6091
 primal_lower3: 936 u[0] + 925 u[1] + 729 u[2] + 721 u[3] + 787 u[4]
   + 487 u[5] + 872 u[6] + 639 u[7] + 797 u[8] + 592 u[9] + 62 u[10]
   + 20 u[11] + 750 u[12] + 824 u[13] + 720 u[14] + 686 u[15] + 6 u[16]
   + 245 u[17] + 879 u[18] + 437 u[19] + 452 u[20] + 598 u[21] + 304 u[22]
   + 966 u[23] + 861 u[24] + 50 u[25] + 329 u[26] + 277 u[27] + 541 u[28]
   + 430 u[29] + 849 u[30] + 191 u[31] + 550 u[32] + 101 u[33] + 301 u[34]
   + 797 u[35] + 10 u[36] + 265 u[37] + 883 u[38] + 524 u[39] <= 10696
 primal_lower4: 286 u[0] + 428 u[1] + 10 u[2] + 597 u[3] + 248 u[4]
   + 278 u[5] + 929 u[6] + 690 u[7] + 370 u[8] + 792 u[9] + 160 u[10]
   + 55 u[11] + 579 u[12] + 344 u[13] + 546 u[14] + 530 u[15] + 603 u[16]
   + 565 u[17] + 416 u[18] + 825 u[19] + 274 u[20] + 253 u[21] + 705 u[22]
   + 745 u[23] + 970 u[24] + 313 u[25] + 674 u[26] + 704 u[27] + 779 u[28]
   + 333 u[29] + 19 u[30] + 410 u[31] + 795 u[32] + 972 u[33] + 814 u[34]
   + 40 u[35] + 783 u[36] + 89 u[37] + 964 u[38] + 616 u[39] <= 972
 primal_lower5: 703 u[0] + 664 u[1] + 776 u[2] + 556 u[3] + 194 u[4]
   + 490 u[5] + 71 u[6] + 786 u[7] + 468 u[8] + 155 u[9] + 565 u[10]
   + 111 u[11] + 469 u[12] + 35 u[13] + 639 u[14] + 465 u[15] + 477 u[16]
   + 192 u[17] + 270 u[18] + 872 u[19] + 691 u[20] + 449 u[21] + 15 u[22]
   + 305 u[23] + 764 u[24] + 589 u[25] + 896 u[26] + 488 u[27] + 628 u[28]
   + 817 u[29] + 896 u[30] + 210 u[31] + 77 u[32] + 744 u[33] + 132 u[34]
   + 72 u[35] + 633 u[36] + 268 u[37] + 122 u[38] + 479 u[39] <= 9116
 primal_lower6: 844 u[0] + 498 u[1] + 176 u[2] + 131 u[3] + 542 u[4]
   + 884 u[5] + 383 u[6] + 832 u[7] + 384 u[8] + 470 u[9] + 638 u[10]
   + 141 u[11] + 305 u[12] + 966 u[13] + 608 u[14] + 512 u[15] + 81 u[16]
   + 3 u[17] + 670 u[18] + 607 u[19] + 560 u[20] + 963 u[21] + 191 u[22]
   + 735 u[23] + 320 u[24] + 255 u[25] + 408 u[26] + 262 u[27] + 449 u[28]
   + 419 u[29] + 361 u[30] + 696 u[31] + 57 u[32] + 738 u[33] + 76 u[34]
   + 902 u[35] + 693 u[36] + 943 u[37] + 170 u[38] + 862 u[39] <= 966
 primal_lower7: 4 u[0] + 842 u[1] + 808 u[2] + 779 u[3] + 78 u[4]
   + 612 u[5] + 471 u[6] + 232 u[7] + 184 u[8] + 766 u[9] + 670 u[10]
   + 181 u[11] + 601 u[12] + 974 u[13] + 232 u[14] + 400 u[15] + 49 u[16]
   + 523 u[17] + 518 u[18] + 135 u[19] + 648 u[20] + 355 u[21] + 39 u[22]
   + 47 u[23] + 816 u[24] + 575 u[25] + 848 u[26] + 374 u[27] + 201 u[28]
   + 99 u[29] + 681 u[30] + 24 u[31] + 193 u[32] + 682 u[33] + 980 u[34]
   + 606 u[35] + 77 u[36] + 831 u[37] + 610 u[38] + 30 u[39] <= 8887
 primal_lower8: 270 u[0] + 955 u[1] + 807 u[2] + 775 u[3] + 673 u[4]
   + 101 u[5] + 542 u[6] + 277 u[7] + 419 u[8] + 942 u[9] + 700 u[10]
   + 922 u[11] + 932 u[12] + 670 u[13] + 942 u[14] + 188 u[15] + 988 u[16]
   + 675 u[17] + 189 u[18] + 483 u[19] + 954 u[20] + 300 u[21] + 326 u[22]
   + 212 u[23] + 835 u[24] + 616 u[25] + 199 u[26] + 27 u[27] + 731 u[28]
   + 44 u[29] + 511 u[30] + 773 u[31] + 796 u[32] + 251 u[33] + 883 u[34]
   + 323 u[35] + 168 u[36] + 927 u[37] + 537 u[38] + 122 u[39] <= 10992
 primal_lower9: 400 u[0] + 630 u[1] + 740 u[2] + 999 u[3] + 906 u[4]
   + 448 u[5] + 219 u[6] + 36 u[7] + 188 u[8] + 794 u[9] + 450 u[10]
   + 225 u[11] + 949 u[12] + 826 u[13] + 396 u[14] + 804 u[15] + 341 u[16]
   + 247 u[17] + 410 u[18] + 483 u[19] + 588 u[20] + 919 u[21] + 603 u[22]
   + 115 u[23] + 660 u[24] + 291 u[25] + 676 u[26] + 450 u[27] + 333 u[28]
   + 511 u[29] + 813 u[30] + 132 u[31] + 797 u[32] + 214 u[33] + 240 u[34]
   + 482 u[35] + 665 u[36] + 811 u[37] + 502 u[38] + 10 u[39] <= 10151
 interdiction[0]: x[0] + u[0] <= 1
 interdiction[1]: x[1] + u[1] <= 1
 interdiction[2]: x[2] + u[2] <= 1
 interdiction[3]: x[3] + u[3] <= 1
 interdiction[4]: x[4] + u[4] <= 1
 interdiction[5]: x[5] + u[5] <= 1
 interdiction[6]: x[6] + u[6] <= 1
 interdiction[7]: x[7] + u[7] <= 1
 interdiction[8]: x[8] + u[8] <= 1
 interdiction[9]: x[9] + u[9] <= 1
 interdiction[10]: x[10] + u[10] <= 1
 interdiction[11]: x[11] + u[11] <= 1
 interdiction[12]: x[12] + u[12] <= 1
 interdiction[13]: x[13] + u[13] <= 1
 interdiction[14]: x[14] + u[14] <= 1
 interdiction[15]: x[15] + u[15] <= 1
 interdiction[16]: x[16] + u[16] <= 1
 interdiction[17]: x[17] + u[17] <= 1
 interdiction[18]: x[18] + u[18] <= 1
 interdiction[19]: x[19] + u[19] <= 1
 interdiction[20]: x[20] + u[20] <= 1
 interdiction[21]: x[21] + u[21] <= 1
 interdiction[22]: x[22] + u[22] <= 1
 interdiction[23]: x[23] + u[23] <= 1
 interdiction[24]: x[24] + u[24] <= 1
 interdiction[25]: x[25] + u[25] <= 1
 interdiction[26]: x[26] + u[26] <= 1
 interdiction[27]: x[27] + u[27] <= 1
 interdiction[28]: x[28] + u[28] <= 1
 interdiction[29]: x[29] + u[29] <= 1
 interdiction[30]: x[30] + u[30] <= 1
 interdiction[31]: x[31] + u[31] <= 1
 interdiction[32]: x[32] + u[32] <= 1
 interdiction[33]: x[33] + u[33] <= 1
 interdiction[34]: x[34] + u[34] <= 1
 interdiction[35]: x[35] + u[35] <= 1
 interdiction[36]: x[36] + u[36] <= 1
 interdiction[37]: x[37] + u[37] <= 1
 interdiction[38]: x[38] + u[38] <= 1
 interdiction[39]: x[39] + u[39] <= 1
 mccormick1[0]: - u[0] + z[0] <= 0
 mccormick1[1]: - u[1] + z[1] <= 0
 mccormick1[2]: - u[2] + z[2] <= 0
 mccormick1[3]: - u[3] + z[3] <= 0
 mccormick1[4]: - u[4] + z[4] <= 0
 mccormick1[5]: - u[5] + z[5] <= 0
 mccormick1[6]: - u[6] + z[6] <= 0
 mccormick1[7]: - u[7] + z[7] <= 0
 mccormick1[8]: - u[8] + z[8] <= 0
 mccormick1[9]: - u[9] + z[9] <= 0
 mccormick1[10]: - u[10] + z[10] <= 0
 mccormick1[11]: - u[11] + z[11] <= 0
 mccormick1[12]: - u[12] + z[12] <= 0
 mccormick1[13]: - u[13] + z[13] <= 0
 mccormick1[14]: - u[14] + z[14] <= 0
 mccormick1[15]: - u[15] + z[15] <= 0
 mccormick1[16]: - u[16] + z[16] <= 0
 mccormick1[17]: - u[17] + z[17] <= 0
 mccormick1[18]: - u[18] + z[18] <= 0
 mccormick1[19]: - u[19] + z[19] <= 0
 mccormick1[20]: - u[20] + z[20] <= 0
 mccormick1[21]: - u[21] + z[21] <= 0
 mccormick1[22]: - u[22] + z[22] <= 0
 mccormick1[23]: - u[23] + z[23] <= 0
 mccormick1[24]: - u[24] + z[24] <= 0
 mccormick1[25]: - u[25] + z[25] <= 0
 mccormick1[26]: - u[26] + z[26] <= 0
 mccormick1[27]: - u[27] + z[27] <= 0
 mccormick1[28]: - u[28] + z[28] <= 0
 mccormick1[29]: - u[29] + z[29] <= 0
 mccormick1[30]: - u[30] + z[30] <= 0
 mccormick1[31]: - u[31] + z[31] <= 0
 mccormick1[32]: - u[32] + z[32] <= 0
 mccormick1[33]: - u[33] + z[33] <= 0
 mccormick1[34]: - u[34] + z[34] <= 0
 mccormick1[35]: - u[35] + z[35] <= 0
 mccormick1[36]: - u[36] + z[36] <= 0
 mccormick1[37]: - u[37] + z[37] <= 0
 mccormick1[38]: - u[38] + z[38] <= 0
 mccormick1[39]: - u[39] + z[39] <= 0
 mccormick2[0]: - y[0] + z[0] <= 0
 mccormick2[1]: - y[1] + z[1] <= 0
 mccormick2[2]: - y[2] + z[2] <= 0
 mccormick2[3]: - y[3] + z[3] <= 0
 mccormick2[4]: - y[4] + z[4] <= 0
 mccormick2[5]: - y[5] + z[5] <= 0
 mccormick2[6]: - y[6] + z[6] <= 0
 mccormick2[7]: - y[7] + z[7] <= 0
 mccormick2[8]: - y[8] + z[8] <= 0
 mccormick2[9]: - y[9] + z[9] <= 0
 mccormick2[10]: - y[10] + z[10] <= 0
 mccormick2[11]: - y[11] + z[11] <= 0
 mccormick2[12]: - y[12] + z[12] <= 0
 mccormick2[13]: - y[13] + z[13] <= 0
 mccormick2[14]: - y[14] + z[14] <= 0
 mccormick2[15]: - y[15] + z[15] <= 0
 mccormick2[16]: - y[16] + z[16] <= 0
 mccormick2[17]: - y[17] + z[17] <= 0
 mccormick2[18]: - y[18] + z[18] <= 0
 mccormick2[19]: - y[19] + z[19] <= 0
 mccormick2[20]: - y[20] + z[20] <= 0
 mccormick2[21]: - y[21] + z[21] <= 0
 mccormick2[22]: - y[22] + z[22] <= 0
 mccormick2[23]: - y[23] + z[23] <= 0
 mccormick2[24]: - y[24] + z[24] <= 0
 mccormick2[25]: - y[25] + z[25] <= 0
 mccormick2[26]: - y[26] + z[26] <= 0
 mccormick2[27]: - y[27] + z[27] <= 0
 mccormick2[28]: - y[28] + z[28] <= 0
 mccormick2[29]: - y[29] + z[29] <= 0
 mccormick2[30]: - y[30] + z[30] <= 0
 mccormick2[31]: - y[31] + z[31] <= 0
 mccormick2[32]: - y[32] + z[32] <= 0
 mccormick2[33]: - y[33] + z[33] <= 0
 mccormick2[34]: - y[34] + z[34] <= 0
 mccormick2[35]: - y[35] + z[35] <= 0
 mccormick2[36]: - y[36] + z[36] <= 0
 mccormick2[37]: - y[37] + z[37] <= 0
 mccormick2[38]: - y[38] + z[38] <= 0
 mccormick2[39]: - y[39] + z[39] <= 0
 mccormick3[0]: y[0] + u[0] - z[0] <= 1
 mccormick3[1]: y[1] + u[1] - z[1] <= 1
 mccormick3[2]: y[2] + u[2] - z[2] <= 1
 mccormick3[3]: y[3] + u[3] - z[3] <= 1
 mccormick3[4]: y[4] + u[4] - z[4] <= 1
 mccormick3[5]: y[5] + u[5] - z[5] <= 1
 mccormick3[6]: y[6] + u[6] - z[6] <= 1
 mccormick3[7]: y[7] + u[7] - z[7] <= 1
 mccormick3[8]: y[8] + u[8] - z[8] <= 1
 mccormick3[9]: y[9] + u[9] - z[9] <= 1
 mccormick3[10]: y[10] + u[10] - z[10] <= 1
 mccormick3[11]: y[11] + u[11] - z[11] <= 1
 mccormick3[12]: y[12] + u[12] - z[12] <= 1
 mccormick3[13]: y[13] + u[13] - z[13] <= 1
 mccormick3[14]: y[14] + u[14] - z[14] <= 1
 mccormick3[15]: y[15] + u[15] - z[15] <= 1
 mccormick3[16]: y[16] + u[16] - z[16] <= 1
 mccormick3[17]: y[17] + u[17] - z[17] <= 1
 mccormick3[18]: y[18] + u[18] - z[18] <= 1
 mccormick3[19]: y[19] + u[19] - z[19] <= 1
 mccormick3[20]: y[20] + u[20] - z[20] <= 1
 mccormick3[21]: y[21] + u[21] - z[21] <= 1
 mccormick3[22]: y[22] + u[22] - z[22] <= 1
 mccormick3[23]: y[23] + u[23] - z[23] <= 1
 mccormick3[24]: y[24] + u[24] - z[24] <= 1
 mccormick3[25]: y[25] + u[25] - z[25] <= 1
 mccormick3[26]: y[26] + u[26] - z[26] <= 1
 mccormick3[27]: y[27] + u[27] - z[27] <= 1
 mccormick3[28]: y[28] + u[28] - z[28] <= 1
 mccormick3[29]: y[29] + u[29] - z[29] <= 1
 mccormick3[30]: y[30] + u[30] - z[30] <= 1
 mccormick3[31]: y[31] + u[31] - z[31] <= 1
 mccormick3[32]: y[32] + u[32] - z[32] <= 1
 mccormick3[33]: y[33] + u[33] - z[33] <= 1
 mccormick3[34]: y[34] + u[34] - z[34] <= 1
 mccormick3[35]: y[35] + u[35] - z[35] <= 1
 mccormick3[36]: y[36] + u[36] - z[36] <= 1
 mccormick3[37]: y[37] + u[37] - z[37] <= 1
 mccormick3[38]: y[38] + u[38] - z[38] <= 1
 mccormick3[39]: y[39] + u[39] - z[39] <= 1
Bounds
Binaries
 x[0] x[1] x[2] x[3] x[4] x[5] x[6] x[7] x[8] x[9] x[10] x[11] x[12] x[13]
 x[14] x[15] x[16] x[17] x[18] x[19] x[20] x[21] x[22] x[23] x[24] x[25]
 x[26] x[27] x[28] x[29] x[30] x[31] x[32] x[33] x[34] x[35] x[36] x[37]
 x[38] x[39] y[0] y[1] y[2] y[3] y[4] y[5] y[6] y[7] y[8] y[9] y[10] y[11]
 y[12] y[13] y[14] y[15] y[16] y[17] y[18] y[19] y[20] y[21] y[22] y[23]
 y[24] y[25] y[26] y[27] y[28] y[29] y[30] y[31] y[32] y[33] y[34] y[35]
 y[36] y[37] y[38] y[39] u[0] u[1] u[2] u[3] u[4] u[5] u[6] u[7] u[8] u[9]
 u[10] u[11] u[12] u[13] u[14] u[15] u[16] u[17] u[18] u[19] u[20] u[21]
 u[22] u[23] u[24] u[25] u[26] u[27] u[28] u[29] u[30] u[31] u[32] u[33]
 u[34] u[35] u[36] u[37] u[38] u[39] z[0] z[1] z[2] z[3] z[4] z[5] z[6]
 z[7] z[8] z[9] z[10] z[11] z[12] z[13] z[14] z[15] z[16] z[17] z[18] z[19]
 z[20] z[21] z[22] z[23] z[24] z[25] z[26] z[27] z[28] z[29] z[30] z[31]
 z[32] z[33] z[34] z[35] z[36] z[37] z[38] z[39]
End
